# Node Net
3547   1
 58   1
2281   1
2941   1
3300   2
3550   2
 48   2
900   2
 50   3
 56   3
1141   3
  3   3
 59   4
3562   4
 23   4
3570   5
3121   5
 16   5
3582   6
241   6
720   6
3420   7
3578   7
1921   7
 19   8
1981   8
  2   8
2761   9
  7   9
 10   9
3241  10
2101  10
3545  10
  1  11
3587  11
3480  12
1681  12
